(set-info :smt-lib-version 2.6)
(set-logic QF_LIA)
(set-info :category "industrial")
(set-info :status sat)
(declare-fun x0 () Int)
(declare-fun x1 () Int)
(declare-fun x10 () Int)
(declare-fun x11 () Int)
(declare-fun x12 () Int)
(declare-fun x13 () Int)
(declare-fun x14 () Int)
(declare-fun x15 () Int)
(declare-fun x16 () Int)
(declare-fun x17 () Int)
(declare-fun x18 () Int)
(declare-fun x19 () Int)
(declare-fun x2 () Int)
(declare-fun x20 () Int)
(declare-fun x21 () Int)
(declare-fun x22 () Int)
(declare-fun x23 () Int)
(declare-fun x24 () Int)
(declare-fun x25 () Int)
(declare-fun x26 () Int)
(declare-fun x27 () Int)
(declare-fun x28 () Int)
(declare-fun x29 () Int)
(declare-fun x3 () Int)
(declare-fun x4 () Int)
(declare-fun x5 () Int)
(declare-fun x6 () Int)
(declare-fun x7 () Int)
(declare-fun x8 () Int)
(declare-fun x9 () Int)
(assert (let ((?v_16 (* 0 x0)) (?v_13 (* 0 x14)) (?v_27 (* 1 x17)) (?v_44 (* 0 x2)) (?v_0 (* 0 x20)) (?v_5 (* 0 x21)) (?v_34 (* 1 x19)) (?v_6 (* 0 x25)) (?v_22 (* 0 x27)) (?v_2 (* 0 x28)) (?v_4 (* 0 x3)) (?v_65 (* 1 x5)) (?v_9 (* 0 x6)) (?v_3 (* 0 x9)) (?v_10 (* 0 x10)) (?v_18 (* 0 x16)) (?v_14 (* 0 x22)) (?v_83 (* 1 x1)) (?v_31 (* 1 x12)) (?v_99 (* 1 x14)) (?v_28 (* 1 x21)) (?v_15 (* 0 x26)) (?v_7 (* 0 x4)) (?v_8 (* 1 x29)) (?v_63 (* 1 x13)) (?v_32 (* 1 x18)) (?v_72 (* 2 x0)) (?v_36 (* 0 x5)) (?v_39 (* 1 x3)) (?v_37 (* 1 x7)) (?v_104 (* 2 x23)) (?v_24 (* 0 x12)) (?v_30 (* 1 x11)) (?v_78 (* 1 x15)) (?v_26 (* 2 x16)) (?v_60 (* 0 x19)) (?v_20 (* 1 x2)) (?v_29 (* 0 x7)) (?v_54 (* 0 x8)) (?v_42 (* 1 x10)) (?v_51 (* 0 x11)) (?v_25 (* 0 x13)) (?v_57 (* 0 x17)) (?v_74 (* 0 x29)) (?v_85 (* 1 x8)) (?v_40 (* 1 x9))) (let ((?v_71 (+ ?v_85 ?v_40)) (?v_64 (* 0 x18)) (?v_61 (* 1 x20)) (?v_52 (* 0 x24)) (?v_70 (* 2 x28)) (?v_84 (* 1 x6)) (?v_41 (* 0 x1)) (?v_43 (* 0 x15)) (?v_47 (* 1 x4)) (?v_55 (+ ?v_9 ?v_40)) (?v_75 (* 1 x16)) (?v_66 (* 1 x0)) (?v_69 (* 0 x23)) (?v_91 (* 1 x25)) (?v_87 (* 1 x26)) (?v_106 (* 1 x23)) (?v_79 (* 1 x28)) (?v_89 (* 1 x22)) (?v_86 (* 1 x24))) (let ((?v_90 (+ ?v_4 ?v_47)) (?v_95 (+ ?v_37 ?v_3)) (?v_105 (* 2 x15)) (?v_102 (* 2 x14)) (?v_93 (* 1 x27)) (?v_109 (* 2 x1)) (?v_108 (* 2 x7)) (?v_100 (* 2 x21)) (?v_101 (+ ?v_8 ?v_85)) (?v_56 (* (- 1) x15)) (?v_1 (* (- 2) x23)) (?v_33 (* (- 1) x24)) (?v_48 (* (- 1) x7)) (?v_11 (* (- 1) x18)) (?v_19 (* (- 1) x19)) (?v_46 (* (- 1) x25)) (?v_58 (* (- 1) x8)) (?v_35 (* (- 1) x27)) (?v_23 (* (- 1) x10)) (?v_92 (* (- 1) x11)) (?v_81 (* (- 1) x16)) (?v_50 (* (- 1) x17)) (?v_12 (* (- 1) x20)) (?v_21 (* (- 1) x26)) (?v_67 (* (- 1) x28)) (?v_49 (* (- 1) x9)) (?v_94 (* (- 2) x28)) (?v_17 (* (- 1) x1)) (?v_68 (* (- 1) x5)) (?v_45 (* (- 1) x23)) (?v_76 (* (- 1) x29)) (?v_98 (* (- 2) x21)) (?v_38 (* (- 1) x14)) (?v_107 (* (- 2) x11)) (?v_88 (* (- 1) x0)) (?v_73 (* (- 1) x2)) (?v_53 (* (- 1) x3)) (?v_97 (* (- 1) x6)) (?v_59 (* (- 1) x22)) (?v_62 (* (- 1) x12)) (?v_82 (* (- 1) x4)) (?v_103 (* (- 2) x14)) (?v_80 (* (- 1) x13)) (?v_96 (* (- 2) x5)) (?v_77 (* (- 1) x21)) (?v_110 (* (- 2) x17))) (and (<= (+ ?v_56 (+ ?v_16 (+ ?v_13 (+ ?v_27 (+ ?v_44 (+ ?v_0 (+ ?v_5 (+ ?v_34 (+ ?v_1 (+ ?v_33 (+ ?v_48 (+ ?v_6 (+ ?v_22 (+ ?v_2 (+ ?v_4 (+ ?v_65 (+ ?v_9 ?v_3))))))))))))))))) (- 1)) (<= (+ ?v_10 (+ ?v_18 (+ ?v_11 (+ ?v_19 (+ ?v_0 (+ ?v_14 (+ ?v_83 (+ ?v_31 (+ ?v_99 (+ ?v_28 (+ ?v_1 (+ ?v_46 (+ ?v_58 (+ ?v_15 (+ ?v_35 (+ ?v_2 (+ ?v_7 (+ ?v_3 (+ ?v_8 ?v_4))))))))))))))))))) (- 1)) (<= (+ ?v_23 (+ ?v_92 (+ ?v_81 (+ ?v_50 (+ ?v_63 (+ ?v_32 (+ ?v_72 (+ ?v_12 (+ ?v_5 (+ ?v_21 (+ ?v_67 (+ ?v_49 (+ ?v_6 (+ (* (- 2) x27) (+ ?v_7 (+ ?v_36 (+ ?v_8 (+ ?v_39 (+ ?v_9 (+ ?v_37 ?v_104)))))))))))))))))))) (- 1)) (<= (+ ?v_94 (+ ?v_17 (+ ?v_10 (+ ?v_24 (+ ?v_11 (+ ?v_30 (+ (* 2 x13) (+ ?v_12 (+ ?v_13 (+ ?v_78 (+ ?v_26 (+ ?v_60 (+ ?v_20 (+ ?v_14 (+ ?v_6 (+ ?v_15 (+ ?v_29 ?v_54))))))))))))))))) (- 1)) (<= (+ ?v_16 (+ ?v_17 (+ ?v_42 (+ ?v_11 (+ ?v_51 (+ ?v_25 (+ ?v_18 (+ ?v_57 (+ ?v_19 (+ ?v_12 (+ ?v_5 (+ ?v_68 (+ ?v_20 (+ ?v_14 (+ ?v_21 (+ ?v_6 (+ ?v_22 (+ ?v_74 (+ ?v_4 (+ ?v_7 ?v_71)))))))))))))))))))) (- 1)) (<= (+ ?v_17 (+ ?v_23 (+ ?v_24 (+ ?v_25 (+ ?v_26 (+ ?v_27 (+ ?v_64 (+ ?v_61 (+ ?v_28 (+ ?v_14 (+ ?v_45 (+ ?v_52 (+ ?v_76 (+ ?v_15 (+ ?v_7 (+ ?v_29 (+ ?v_3 (+ ?v_70 ?v_84)))))))))))))))))) 1) (<= (+ ?v_98 (+ ?v_17 (+ ?v_10 (+ ?v_25 (+ ?v_30 (+ ?v_31 (+ ?v_38 (+ ?v_18 (+ ?v_27 (+ ?v_32 (+ ?v_33 (+ ?v_0 (+ ?v_34 (+ ?v_20 (+ ?v_35 (+ ?v_2 (+ ?v_36 (+ ?v_37 (* 2 x9))))))))))))))))))) 0) (<= (+ ?v_107 (+ ?v_88 (+ ?v_38 (+ ?v_11 (+ ?v_73 (+ ?v_12 (+ ?v_41 (+ ?v_10 (+ ?v_25 (+ ?v_43 (+ ?v_18 (+ ?v_5 (+ ?v_14 (+ ?v_6 (+ ?v_15 (+ ?v_2 (+ ?v_36 (+ ?v_29 (+ ?v_39 (+ ?v_47 ?v_55)))))))))))))))))))) 0) (<= (+ ?v_41 (+ ?v_42 (+ ?v_25 (+ ?v_43 (+ ?v_18 (+ ?v_27 (+ ?v_44 (+ ?v_0 (+ ?v_5 (+ ?v_14 (+ ?v_45 (+ ?v_33 (+ ?v_46 (+ ?v_2 (+ ?v_53 (+ ?v_15 (+ ?v_47 (+ ?v_36 (+ ?v_97 (+ ?v_48 (+ ?v_49 ?v_22))))))))))))))))))))) (- 1)) (<= (+ ?v_16 (+ ?v_17 (+ ?v_42 (+ ?v_50 (+ ?v_51 (+ ?v_24 (+ ?v_59 (+ ?v_13 (+ ?v_43 (+ ?v_32 (+ ?v_34 (+ ?v_45 (+ ?v_52 (+ ?v_53 (+ ?v_48 (+ ?v_6 (+ ?v_22 (+ ?v_36 (+ ?v_54 (+ ?v_8 ?v_55)))))))))))))))))))) 0) (<= (+ ?v_23 (+ ?v_62 (+ ?v_56 (+ ?v_75 (+ ?v_57 (+ ?v_82 (+ ?v_58 (+ ?v_25 (+ ?v_66 (+ ?v_32 (+ ?v_59 (+ ?v_60 (+ ?v_61 (+ ?v_28 (+ ?v_46 (+ ?v_15 (+ ?v_22 (+ ?v_29 (+ (* 2 x29) ?v_39))))))))))))))))))) 0) (<= (+ ?v_17 (+ ?v_10 (+ ?v_62 (+ ?v_43 (+ ?v_57 (+ ?v_63 (+ ?v_26 (+ ?v_12 (+ ?v_5 (+ ?v_33 (+ (* 2 x2) (+ ?v_14 (+ ?v_46 (+ ?v_15 (+ ?v_35 (+ ?v_69 (+ ?v_7 (+ ?v_29 ?v_8)))))))))))))))))) 0) (<= (+ ?v_103 (+ ?v_19 (+ ?v_41 (+ ?v_10 (+ ?v_24 (+ ?v_25 (+ ?v_43 (+ ?v_57 (+ ?v_64 (+ ?v_0 (+ ?v_28 (+ ?v_91 (+ ?v_87 (+ ?v_35 (+ ?v_7 (+ ?v_106 (+ ?v_79 (+ ?v_8 ?v_65)))))))))))))))))) (- 1)) (<= (+ ?v_23 (+ ?v_56 (+ ?v_51 (+ ?v_24 (+ ?v_25 (+ ?v_18 (+ ?v_57 (+ ?v_66 (+ ?v_32 (+ ?v_0 (+ ?v_5 (+ ?v_52 (+ ?v_7 (+ ?v_29 (+ ?v_54 (+ ?v_3 (+ ?v_20 (+ ?v_59 (+ ?v_67 (+ ?v_68 ?v_69)))))))))))))))))))) 1) (<= (+ ?v_38 (+ ?v_12 (+ ?v_41 (+ ?v_10 (+ ?v_25 (+ ?v_57 (+ ?v_44 (+ ?v_5 (+ ?v_52 (+ ?v_34 (+ ?v_69 (+ ?v_15 (+ ?v_70 (+ ?v_8 (+ ?v_4 (+ ?v_65 (+ ?v_9 (+ ?v_37 ?v_71)))))))))))))))))) (- 1)) (<= (+ ?v_10 (+ ?v_80 (+ ?v_57 (+ ?v_30 (+ ?v_72 (+ ?v_96 (+ ?v_19 (+ ?v_73 (+ ?v_77 (+ ?v_0 (+ ?v_52 (+ ?v_89 (+ ?v_53 (+ ?v_48 (+ ?v_41 (+ ?v_15 (+ ?v_2 (+ ?v_74 (+ ?v_47 ?v_9))))))))))))))))))) 1) (<= (+ ?v_50 (+ ?v_11 (+ (* (- 2) x8) (+ ?v_46 (+ ?v_21 (+ ?v_48 (+ ?v_41 (+ ?v_42 (+ ?v_43 (+ ?v_44 (+ ?v_86 (+ ?v_22 (+ ?v_74 ?v_90))))))))))))) 0) (<= (+ ?v_19 (+ ?v_12 (+ ?v_46 (+ ?v_67 (+ ?v_68 (+ ?v_58 (+ ?v_41 (+ ?v_51 (+ ?v_31 (+ ?v_63 (+ ?v_13 (+ ?v_75 (+ ?v_32 (+ ?v_5 (+ ?v_20 (+ ?v_74 (+ ?v_4 (+ ?v_7 ?v_95)))))))))))))))))) 0) (<= (+ ?v_56 (+ (* (- 2) x7) (+ ?v_33 (+ ?v_46 (+ ?v_21 (+ ?v_76 (+ ?v_68 (+ ?v_41 (+ ?v_10 (+ ?v_30 (+ ?v_31 (+ ?v_75 (+ ?v_32 (+ ?v_60 (+ ?v_54 (+ ?v_3 (+ ?v_20 (+ ?v_61 (+ ?v_28 ?v_9))))))))))))))))))) 0) (<= (+ ?v_42 (+ ?v_62 (+ ?v_11 (+ ?v_25 (+ ?v_77 (+ ?v_33 (+ ?v_76 (+ ?v_13 (+ ?v_78 (+ ?v_75 (+ ?v_27 (+ ?v_0 (+ ?v_20 (+ ?v_22 (+ ?v_79 (+ ?v_4 (+ ?v_7 (+ ?v_65 ?v_37)))))))))))))))))) (- 1)) (<= (+ ?v_23 (+ ?v_80 (+ ?v_81 (+ ?v_16 (+ ?v_19 (+ ?v_59 (+ ?v_33 (+ ?v_82 (+ ?v_13 (+ ?v_43 (+ ?v_57 (+ ?v_64 (+ ?v_6 (+ ?v_29 (+ ?v_83 (+ ?v_84 ?v_85)))))))))))))))) 1) (<= (+ (* (- 2) x16) (+ ?v_80 (+ ?v_77 (+ ?v_16 (+ ?v_30 (+ ?v_31 (+ ?v_13 (+ ?v_27 (+ ?v_32 (+ ?v_61 (+ ?v_45 (+ ?v_86 (+ ?v_76 (+ ?v_49 (+ ?v_36 (+ ?v_29 ?v_87)))))))))))))))) (- 1)) (<= (+ ?v_88 (+ ?v_38 (+ ?v_68 (+ ?v_41 (+ ?v_42 (+ ?v_24 (+ ?v_25 (+ ?v_64 (+ ?v_105 (+ ?v_5 (+ ?v_61 (+ ?v_89 (+ ?v_69 (+ ?v_52 (+ ?v_6 (+ ?v_22 (+ ?v_29 (+ ?v_54 (+ ?v_79 (+ ?v_8 ?v_90)))))))))))))))))))) 1) (<= (+ ?v_56 (+ ?v_81 (+ ?v_11 (+ ?v_33 (+ ?v_66 (+ ?v_76 (+ ?v_41 (+ ?v_10 (+ ?v_51 (+ ?v_31 (+ ?v_63 (+ ?v_27 (+ ?v_0 (+ ?v_5 (+ ?v_102 (+ ?v_69 (+ ?v_15 (+ ?v_54 (+ ?v_91 ?v_22))))))))))))))))))) 1) (<= (+ ?v_10 (+ ?v_25 (+ ?v_57 (+ ?v_64 (+ ?v_30 (+ ?v_38 (+ ?v_78 (+ ?v_26 (+ ?v_19 (+ ?v_68 (+ ?v_41 (+ ?v_5 (+ ?v_69 (+ ?v_86 (+ ?v_15 (+ ?v_3 (+ ?v_93 (+ ?v_79 ?v_37)))))))))))))))))) 1) (<= (+ ?v_92 (+ ?v_31 (+ ?v_77 (+ ?v_59 (+ ?v_58 (+ ?v_49 (+ ?v_13 (+ ?v_57 (+ ?v_78 (+ ?v_60 (+ (* 2 x20) (+ ?v_69 (+ ?v_2 (+ ?v_4 (+ ?v_91 (+ ?v_87 ?v_93)))))))))))))))) 1) (<= (+ ?v_80 (+ ?v_81 (+ ?v_16 (+ ?v_51 (+ (* (- 3) x5) (+ (* (- 2) x2) (+ ?v_33 (+ ?v_76 (+ ?v_48 (+ ?v_49 (+ ?v_13 (+ ?v_5 (+ ?v_14 (+ ?v_34 (+ ?v_61 (+ ?v_69 (+ ?v_91 (+ ?v_22 (+ ?v_39 (+ ?v_47 ?v_84)))))))))))))))))))) 0) (<= (+ ?v_88 (+ ?v_10 (+ ?v_24 (+ ?v_43 (+ ?v_18 (+ ?v_57 (+ ?v_20 (+ ?v_59 (+ ?v_94 (+ (* (- 2) x4) (+ ?v_60 (+ ?v_21 (+ ?v_109 (+ ?v_69 (+ ?v_22 (+ ?v_74 (+ ?v_9 ?v_95))))))))))))))))) (- 1)) (<= (+ (* (- 2) x0) (+ ?v_23 (+ ?v_56 (+ ?v_75 (+ ?v_61 (+ ?v_96 (+ ?v_59 (+ ?v_60 (+ ?v_53 (+ ?v_83 (+ ?v_69 (+ ?v_6 (+ ?v_87 (+ ?v_22 (+ ?v_54 (+ ?v_79 (+ ?v_8 (+ ?v_9 ?v_37)))))))))))))))))) 0) (<= (+ ?v_92 (+ ?v_56 (+ ?v_11 (+ ?v_58 (+ ?v_49 (+ ?v_16 (+ ?v_24 (+ ?v_97 (+ ?v_83 (+ ?v_75 (+ ?v_34 (+ ?v_61 (+ ?v_28 (+ ?v_69 (+ ?v_36 (+ ?v_29 (+ ?v_93 (+ ?v_79 (+ ?v_8 ?v_47))))))))))))))))))) 0) (<= (+ ?v_10 (+ ?v_64 (+ ?v_30 (+ ?v_78 (+ ?v_33 (+ ?v_44 (+ ?v_0 (+ ?v_28 (+ ?v_59 (+ (* (- 2) x29) (+ ?v_69 (+ ?v_3 (+ ?v_87 (+ ?v_22 (+ (* 2 x3) ?v_108))))))))))))))) 0) (<= (+ ?v_92 (+ ?v_50 (+ ?v_11 (+ ?v_16 (+ ?v_10 (+ ?v_24 (+ ?v_43 (+ ?v_19 (+ ?v_0 (+ ?v_100 (+ ?v_52 (+ ?v_53 (+ ?v_48 (+ ?v_69 (+ ?v_36 (+ ?v_54 (+ ?v_3 (+ ?v_87 (+ ?v_93 (+ ?v_79 ?v_47)))))))))))))))))))) 0) (<= (+ ?v_66 (+ ?v_17 (+ ?v_51 (+ ?v_25 (+ ?v_43 (+ ?v_27 (+ ?v_19 (+ ?v_73 (+ ?v_13 (+ ?v_0 (+ ?v_14 (+ ?v_69 (+ ?v_22 (+ ?v_79 (+ ?v_8 (* 3 x5)))))))))))))))) 0) (<= (+ (* (- 2) x18) (+ ?v_98 (+ ?v_88 (+ ?v_17 (+ ?v_10 (+ ?v_80 (+ ?v_81 (+ ?v_82 (+ ?v_51 (+ ?v_24 (+ ?v_60 (+ ?v_69 (+ ?v_86 (+ ?v_6 (+ ?v_22 (+ ?v_8 (+ ?v_4 (+ ?v_36 (+ ?v_9 (+ ?v_85 ?v_3)))))))))))))))))))) (- 1)) (<= (+ ?v_66 (+ ?v_17 (+ ?v_10 (+ ?v_51 (+ ?v_24 (+ ?v_25 (+ ?v_18 (+ ?v_73 (+ ?v_61 (+ ?v_59 (+ ?v_33 (+ ?v_34 (+ ?v_21 (+ ?v_99 (+ ?v_69 (+ ?v_22 (+ ?v_7 (+ ?v_39 (+ ?v_9 ?v_85))))))))))))))))))) 0) (<= (+ ?v_16 (+ ?v_17 (+ ?v_42 (+ ?v_56 (+ ?v_18 (+ ?v_50 (+ ?v_32 (+ ?v_0 (+ ?v_5 (+ ?v_20 (+ ?v_59 (+ ?v_82 (+ ?v_49 (+ ?v_99 (+ ?v_69 (+ ?v_91 (+ ?v_22 (+ ?v_74 ?v_36)))))))))))))))))) (- 1)) (<= (+ ?v_42 (+ ?v_62 (+ ?v_25 (+ ?v_18 (+ ?v_66 (+ ?v_27 (+ ?v_59 (+ ?v_68 (+ ?v_60 (+ ?v_44 (+ ?v_52 (+ ?v_6 (+ ?v_15 (+ ?v_2 (+ ?v_4 (+ ?v_3 (+ ?v_93 ?v_101))))))))))))))))) (- 1)) (<= (+ ?v_43 (+ ?v_75 (+ (* 2 x11) (+ (* (- 2) x19) (+ ?v_100 (+ (* 3 x2) (+ ?v_59 (+ ?v_33 (+ ?v_21 (+ ?v_49 (+ ?v_6 (+ ?v_4 (+ ?v_7 (+ ?v_29 (+ ?v_93 (+ ?v_70 ?v_101)))))))))))))))) 0) (<= (+ ?v_23 (+ ?v_92 (+ ?v_16 (+ (* 2 x12) (+ ?v_25 (+ ?v_43 (+ ?v_18 (+ ?v_64 (+ ?v_12 (+ ?v_68 (+ ?v_60 (+ ?v_44 (+ ?v_86 (+ ?v_76 (+ ?v_6 (+ ?v_2 (+ ?v_7 (+ ?v_39 (+ ?v_37 ?v_85))))))))))))))))))) 0) (<= (+ ?v_16 (+ ?v_10 (+ ?v_51 (+ ?v_43 (+ ?v_18 (+ ?v_19 (+ ?v_0 (+ ?v_5 (+ ?v_15 (+ ?v_79 (+ ?v_74 (+ ?v_47 (+ ?v_65 (+ ?v_37 (+ ?v_85 ?v_102))))))))))))))) 0) (<= (+ (* (- 3) x12) (+ ?v_92 (+ ?v_50 (+ ?v_16 (+ ?v_42 (+ ?v_18 (+ ?v_78 (+ ?v_5 (+ ?v_14 (+ ?v_86 (+ ?v_15 (+ ?v_22 (+ ?v_2 (+ ?v_74 (+ ?v_7 (+ ?v_36 (+ ?v_9 (+ ?v_54 ?v_3)))))))))))))))))) 0) (<= (+ ?v_42 (+ ?v_24 (+ ?v_63 (+ ?v_72 (+ ?v_103 (+ ?v_57 (+ ?v_78 (+ ?v_77 (+ ?v_82 (+ ?v_0 (+ ?v_86 (+ ?v_6 (+ ?v_97 (+ ?v_58 (+ ?v_49 (+ ?v_41 (+ ?v_22 (+ ?v_2 (+ ?v_29 ?v_104))))))))))))))))))) 0) (<= (+ ?v_17 (+ ?v_10 (+ ?v_50 (+ ?v_11 (+ ?v_25 (+ ?v_18 (+ ?v_105 (+ ?v_20 (+ ?v_46 (+ ?v_53 (+ ?v_82 (+ ?v_97 (+ ?v_49 (+ ?v_13 (+ ?v_22 (+ ?v_2 (+ ?v_54 ?v_106))))))))))))))))) (- 1)) (<= (+ ?v_107 (+ ?v_80 (+ ?v_43 (+ ?v_18 (+ ?v_64 (+ ?v_82 (+ ?v_66 (+ ?v_31 (+ ?v_68 (+ ?v_60 (+ ?v_0 (+ ?v_15 (+ ?v_4 (+ ?v_9 (+ ?v_3 (+ ?v_99 (+ ?v_91 (+ ?v_8 ?v_108)))))))))))))))))) 1) (<= (+ ?v_88 (+ ?v_42 (+ ?v_92 (+ ?v_24 (+ ?v_38 (+ ?v_78 (+ ?v_19 (+ ?v_33 (+ ?v_44 (+ ?v_0 (+ ?v_28 (+ ?v_14 (+ ?v_46 (+ ?v_2 (+ ?v_9 (+ ?v_37 (+ ?v_109 ?v_104))))))))))))))))) 1) (<= (+ (* (- 3) x18) (+ ?v_88 (+ ?v_24 (+ ?v_80 (+ ?v_43 (+ (* 3 x17) (+ ?v_73 (+ ?v_59 (+ ?v_60 (+ ?v_28 (+ ?v_76 (+ ?v_15 (+ ?v_54 (+ ?v_83 (+ ?v_99 (+ ?v_22 ?v_84)))))))))))))))) 0) (<= (+ ?v_110 (+ ?v_88 (+ ?v_92 (+ ?v_24 (+ ?v_38 (+ ?v_75 (+ ?v_32 (+ ?v_12 (+ ?v_77 (+ ?v_60 (+ ?v_14 (+ ?v_15 (+ ?v_2 (+ ?v_4 (+ ?v_3 (+ ?v_83 (+ ?v_45 (+ ?v_91 ?v_37)))))))))))))))))) 1) (<= (+ ?v_50 (+ ?v_16 (+ ?v_10 (+ ?v_24 (+ ?v_63 (+ ?v_78 (+ ?v_32 (+ ?v_0 (+ ?v_86 (+ ?v_15 (+ ?v_2 (+ ?v_74 (+ ?v_97 (+ ?v_29 (+ ?v_54 (+ ?v_83 (+ ?v_99 (+ ?v_35 ?v_39)))))))))))))))))) 1) (<= (+ ?v_98 (+ ?v_88 (+ ?v_10 (+ ?v_92 (+ ?v_43 (+ ?v_75 (+ ?v_14 (+ ?v_99 (+ ?v_69 (+ ?v_86 (+ ?v_6 (+ ?v_4 (+ ?v_7 (+ ?v_36 (+ ?v_108 (+ ?v_3 ?v_87)))))))))))))))) 1) (<= (+ ?v_103 (+ ?v_110 (+ ?v_12 (+ ?v_67 (+ ?v_76 (+ ?v_41 (+ (* 2 x10) (+ ?v_25 (+ ?v_30 (+ ?v_60 (+ ?v_20 (+ (* 2 x22) (+ ?v_6 (+ ?v_9 (+ ?v_54 (+ ?v_3 (+ ?v_106 ?v_93))))))))))))))))) 0))))))
(check-sat)
(exit)
